\* Problem: Unknown *\

Maximize
 obj: + xp_0_0 + xp_0_1 + xp_0_2 + xp_0_3 + xp_0_4 + xp_0_5 + xp_0_6
 + xp_1_0 + xp_1_1 + xp_1_2 + xp_2_0 + xp_2_1 + xp_2_2 + xp_2_3 + xp_3_0
 + xp_3_1 + xp_4_0 + xp_5_0 + xp_5_1 + xp_5_2 + xp_6_0 + xp_6_1 + xp_6_2
 + xp_7_0 + xp_7_1 + xp_7_2 + xp_8_0 + xp_8_1 + xp_9_0 + xp_10_0
 + xp_11_0 + xp_11_1 + xp_11_2 + xp_11_3 + xp_12_0 + xp_13_0 + xp_13_1
 + xp_14_0 + xp_14_1 + xp_15_0 + xp_16_0 + xp_16_1 + xp_17_0 + xp_17_1
 + xp_17_2 + xp_17_3 + xp_17_4 + xp_17_5 + xp_18_0 + xp_18_1 + xp_18_2
 + xp_18_3 + xp_19_0 + xp_19_1 + xp_19_2 + xp_19_3 + xp_19_4 + xp_19_5
 + xp_20_0 + xp_20_1 + xp_20_2 + xp_21_0 + xp_21_1 + xp_21_2 + xp_21_3
 + xp_22_0 + xp_22_1 + xp_22_2 + xp_22_3 + xp_22_4 + xp_22_5 + xp_23_0
 + xp_23_1 + xp_23_2 + xp_23_3 + xp_23_4

Subject To
 r_1: 0 xp_0_0 <= 26.0949464012251
 r_2: + xp_22_5 + xp_18_3 + xp_17_3 + xp_5_2 + xp_2_2
 <= 25.9391100702576
 r_3: + xp_23_2 + xp_21_2 + xp_18_2 <= 26.6425279789335
 r_4: + xp_17_1 + xp_15_0 <= 27.3778920308483
 r_5: + xp_18_0 <= 25.4328358208955
 r_6: + xp_18_1 <= 26.3893805309735
 r_7: 0 xp_0_0 <= 26.0949464012251
 r_8: + xp_23_3 + xp_22_2 + xp_11_2 + xp_5_1 + xp_2_3
 <= 25.9391100702576
 r_9: + xp_23_4 + xp_11_1 + xp_6_1 + xp_3_1 <= 26.6425279789335
 r_10: + xp_3_0 <= 27.3778920308483
 r_11: + xp_18_1 + xp_11_3 + xp_0_5 <= 25.4328358208955
 r_12: + xp_11_0 <= 26.3893805309735
 r_13: 0 xp_0_0 <= 28.3056478405316
 r_14: + xp_21_1 + xp_19_4 + xp_14_0 + xp_0_2 <= 25.9391100702576
 r_15: + xp_21_0 + xp_19_1 <= 26.6425279789335
 r_16: + xp_22_1 + xp_0_6 + xp_0_4 + xp_0_3 + xp_0_1 <= 26.9620253164557
 r_17: + xp_19_5 + xp_0_0 <= 25.4328358208955
 r_18: + xp_21_2 + xp_4_0 <= 26.0949464012251
 r_19: + xp_19_0 + xp_0_5 <= 26.0949464012251
 r_20: + xp_21_3 + xp_19_3 + xp_19_2 + xp_14_1 <= 28.3056478405316
 r_21: + xp_20_1 <= 25.9391100702576
 r_22: + xp_21_1 + xp_7_1 <= 26.6425279789335
 r_23: + xp_22_5 + xp_22_3 + xp_22_2 <= 26.9620253164557
 r_24: + xp_23_3 + xp_17_3 + xp_7_2 + xp_6_2 <= 26.3893805309735
 r_25: 0 xp_0_0 <= 28.3056478405316
 r_26: + xp_18_3 + xp_0_2 <= 25.4328358208955
 r_27: + xp_11_2 <= 25.9391100702576
 r_28: + xp_19_4 + xp_19_3 <= 25.9391100702576
 r_29: + xp_20_2 <= 26.6425279789335
 r_30: + xp_2_0 <= 26.6425279789335
 r_31: + xp_23_4 + xp_23_2 + xp_18_2 + xp_6_1 + xp_3_1
 <= 26.3893805309735
 r_32: + xp_2_1 <= 28.3056478405316
 r_33: + xp_11_1 + xp_2_2 <= 26.6425279789335
 r_34: + xp_19_1 + xp_2_3 <= 26.6425279789335
 r_35: 0 xp_0_0 <= 26.9620253164557
 r_36: + xp_9_0 <= 26.9620253164557
 r_37: + xp_13_1 + xp_8_1 + xp_0_4 <= 26.3893805309735
 r_38: + xp_1_1 + xp_0_6 <= 27.6367006487488
 r_39: + xp_17_4 + xp_0_3 <= 27.3778920308483
 r_40: + xp_0_1 <= 25.4328358208955
 r_41: + xp_12_0 <= 26.3893805309735
 r_42: + xp_7_2 <= 26.3893805309735
 r_43: + xp_16_0 <= 26.3893805309735
 r_44: + xp_23_4 + xp_23_3 + xp_23_2 + xp_23_1 + xp_16_1 + xp_1_2
 <= 27.6367006487488
 r_45: + xp_17_5 + xp_17_3 + xp_3_1 <= 27.3778920308483
 r_46: + xp_18_2 + xp_0_4 <= 25.4328358208955
 r_47: + xp_22_4 + xp_16_1 + xp_13_1 <= 27.6367006487488
 r_48: + xp_13_0 <= 27.6367006487488
 r_49: + xp_17_2 <= 27.3778920308483
 r_50: + xp_0_6 <= 25.4328358208955
 r_51: + xp_8_1 + xp_1_1 <= 27.3778920308483
 r_52: + xp_8_0 + xp_1_2 <= 27.3778920308483
 r_53: + xp_1_0 <= 27.3778920308483
 r_54: + xp_0_3 <= 25.4328358208955
 r_55: 0 xp_0_0 <= 27.3778920308483
 r_56: 0 xp_0_0 <= 27.3778920308483
 r_57: + xp_22_1 <= 25.4328358208955
 r_58: + xp_22_3 + xp_6_2 + xp_5_0 <= 25.4328358208955
 r_59: + xp_22_0 + xp_17_4 <= 25.4328358208955
 r_60: + xp_23_1 + xp_17_5 + xp_6_0 <= 25.4328358208955
 r_61: + xp_23_0 + xp_22_4 + xp_17_2 <= 25.4328358208955
 r_62: + xp_17_0 <= 25.4328358208955
 r_63: + xp_23_2 + xp_22_5 + xp_17_3 + xp_17_1 + xp_11_3 + xp_5_2
 <= 25.4328358208955
 r_64: + xp_23_4 + xp_23_3 + xp_22_2 + xp_19_5 + xp_6_1 + xp_5_1
 <= 25.4328358208955
 r_65: + xp_20_1 + xp_19_3 + xp_14_1 + xp_7_2 + xp_7_1 + xp_2_1
 <= 28.3056478405316
 r_66: + xp_21_3 + xp_20_2 + xp_7_0 <= 28.3056478405316
 r_67: + xp_19_2 + xp_10_0 <= 28.3056478405316
 r_68: + xp_20_0 <= 28.3056478405316

Bounds
 0 <= xp_0_0 <= 24.9394888333092
 0 <= xp_0_1 <= 12.4697444166546
 0 <= xp_0_2 <= 4.15658147221821
 0 <= xp_0_3 <= 4.15658147221821
 0 <= xp_0_4 <= 4.15658147221821
 0 <= xp_0_5 <= 4.15658147221821
 0 <= xp_0_6 <= 4.15658147221821
 0 <= xp_1_0 <= 18.8581191787509
 0 <= xp_1_1 <= 9.98700791184501
 0 <= xp_1_2 <= 4.15658147221821
 0 <= xp_2_0 <= 21.76723573269
 0 <= xp_2_1 <= 5.63307402961661
 0 <= xp_2_2 <= 4.15658147221821
 0 <= xp_2_3 <= 0.984328371598938
 0 <= xp_3_0 <= 24.9394888333092
 0 <= xp_3_1 <= 4.15658147221821
 0 <= xp_4_0 <= 24.5594110234896
 0 <= xp_5_0 <= 17.5424364453497
 0 <= xp_5_1 <= 3.50848728906994
 0 <= xp_5_2 <= 3.50848728906994
 0 <= xp_6_0 <= 15.7881928008147
 0 <= xp_6_1 <= 3.15763856016295
 0 <= xp_6_2 <= 3.15763856016295
 0 <= xp_7_0 <= 15.1303514341141
 0 <= xp_7_1 <= 3.02607028682283
 0 <= xp_7_2 <= 3.02607028682283
 0 <= xp_8_0 <= 13.595388245146
 0 <= xp_8_1 <= 5.43815529805841
 0 <= xp_9_0 <= 17.6520766731332
 0 <= xp_10_0 <= 17.6520766731332
 0 <= xp_11_0 <= 24.6081344715069
 0 <= xp_11_1 <= 11.80703569305
 0 <= xp_11_2 <= 11.4756813312477
 0 <= xp_11_3 <= 7.98180858263412
 0 <= xp_12_0 <= 16.5776024408555
 0 <= xp_13_0 <= 13.8146687007129
 0 <= xp_13_1 <= 2.30244478345215
 0 <= xp_14_0 <= 13.1568273340123
 0 <= xp_14_1 <= 2.19280455566871
 0 <= xp_15_0 <= 15.1961355707842
 0 <= xp_16_0 <= 12.4989859673117
 0 <= xp_16_1 <= 2.08316432788528
 0 <= xp_17_0 <= 26.8789040258501
 0 <= xp_17_1 <= 3.87883038508164
 0 <= xp_17_2 <= 1.93941519254082
 0 <= xp_17_3 <= 1.93941519254082
 0 <= xp_17_4 <= 6.09599666475903
 0 <= xp_17_5 <= 1.93941519254082
 0 <= xp_18_0 <= 21.6551618264546
 0 <= xp_18_1 <= 5.83286011807878
 0 <= xp_18_2 <= 5.83286011807878
 0 <= xp_18_3 <= 7.50913876393936
 0 <= xp_19_0 <= 22.3934018702815
 0 <= xp_19_1 <= 7.37757049059923
 0 <= xp_19_2 <= 5.76707598140872
 0 <= xp_19_3 <= 1.61049450919051
 0 <= xp_19_4 <= 1.61049450919051
 0 <= xp_19_5 <= 1.61049450919051
 0 <= xp_20_0 <= 27.9411973961234
 0 <= xp_20_1 <= 7.15829003503236
 0 <= xp_20_2 <= 4.50256284422123
 0 <= xp_21_0 <= 20.4052632297234
 0 <= xp_21_1 <= 6.67587303278524
 0 <= xp_21_2 <= 2.51929156056704
 0 <= xp_21_3 <= 8.31316294443641
 0 <= xp_22_0 <= 19.7474218630228
 0 <= xp_22_1 <= 2.08073064943329
 0 <= xp_22_2 <= 5.19694679693485
 0 <= xp_22_3 <= 4.15658147221821
 0 <= xp_22_4 <= 1.04036532471665
 0 <= xp_22_5 <= 4.15658147221821
 0 <= xp_23_0 <= 27.0202194827425
 0 <= xp_23_1 <= 6.2373121216515
 0 <= xp_23_2 <= 1.04036532471665
 0 <= xp_23_3 <= 1.04036532471665
 0 <= xp_23_4 <= 1.04036532471665

End
